1651500000
1651507200
1651586400
1651593600
1651672800
1651680000
1651759200
1651766400
1651838400
1651852800
1652104800
1652112000
1652191200
1652198400
1652277600
1652284800
1652364000
1652371200
1652709600
1652716800
1652796000
1652803200
1652882400
1652889600
1652968800
1652976000
1653026400
1653065100
1653314400
1653321600
1653400800
1653408000
1653487200
1653494400
1653652800
1653667200
1653919200
1653926400
1654005600
1654012800
